instances/in_60_30_7_4.lp
#const n = 60.
#const k = 30.
#const h = 7.
tile(1,4,23).
tile(2,15,19).
tile(3,26,22).
tile(4,23,12).
tile(5,4,20).
tile(6,16,10).
tile(7,1,4).
tile(8,26,18).
tile(9,1,25).
tile(10,19,14).
tile(11,22,23).
tile(12,29,3).
tile(13,29,1).
tile(14,2,30).
tile(15,27,16).
tile(16,16,5).
tile(17,2,8).
tile(18,3,19).
tile(19,5,30).
tile(20,10,14).
tile(21,26,29).
tile(22,6,20).
tile(23,19,14).
tile(24,1,12).
tile(25,29,10).
tile(26,27,19).
tile(27,29,10).
tile(28,23,27).
tile(29,20,24).
tile(30,25,25).
tile(31,23,24).
tile(32,15,17).
tile(33,19,30).
tile(34,7,14).
tile(35,2,28).
tile(36,16,9).
tile(37,19,7).
tile(38,15,12).
tile(39,16,4).
tile(40,18,29).
tile(41,7,24).
tile(42,15,8).
tile(43,6,23).
tile(44,18,15).
tile(45,5,3).
tile(46,21,5).
tile(47,28,19).
tile(48,9,2).
tile(49,9,5).
tile(50,6,20).
tile(51,30,1).
tile(52,11,6).
tile(53,28,1).
tile(54,1,23).
tile(55,3,9).
tile(56,29,10).
tile(57,26,21).
tile(58,19,8).
tile(59,5,11).
tile(60,30,11).
