minizinc/input/in_60_30_7_4.dzn
n = 60;
k = 30;
h = 7;
tiles = array2d(1..n, 1..2,
[ 4,23
, 15,19
, 26,22
, 23,12
, 4,20
, 16,10
, 1,4
, 26,18
, 1,25
, 19,14
, 22,23
, 29,3
, 29,1
, 2,30
, 27,16
, 16,5
, 2,8
, 3,19
, 5,30
, 10,14
, 26,29
, 6,20
, 19,14
, 1,12
, 29,10
, 27,19
, 29,10
, 23,27
, 20,24
, 25,25
, 23,24
, 15,17
, 19,30
, 7,14
, 2,28
, 16,9
, 19,7
, 15,12
, 16,4
, 18,29
, 7,24
, 15,8
, 6,23
, 18,15
, 5,3
, 21,5
, 28,19
, 9,2
, 9,5
, 6,20
, 30,1
, 11,6
, 28,1
, 1,23
, 3,9
, 29,10
, 26,21
, 19,8
, 5,11
, 30,11
]);